DIMACS_lns/graph-1000-992.col
p edge 1000 1755
e 1 487
e 1 720
e 1 403
e 1 149
e 1 381
e 1 479
e 2 446
e 2 624
e 2 9
e 2 306
e 2 148
e 3 153
e 3 891
e 3 578
e 3 680
e 3 553
e 4 76
e 4 714
e 4 333
e 5 413
e 5 311
e 5 312
e 5 361
e 5 251
e 5 130
e 5 54
e 5 275
e 6 599
e 6 694
e 6 612
e 6 88
e 6 652
e 6 257
e 7 100
e 7 326
e 7 397
e 8 917
e 8 122
e 8 996
e 9 687
e 9 986
e 9 214
e 9 158
e 10 93
e 10 291
e 10 334
e 10 491
e 11 747
e 11 648
e 11 740
e 11 100
e 11 299
e 11 593
e 13 798
e 13 266
e 13 80
e 14 216
e 14 421
e 14 282
e 14 937
e 14 862
e 17 316
e 17 503
e 17 617
e 17 389
e 17 306
e 18 75
e 18 365
e 18 20
e 18 697
e 18 797
e 18 434
e 18 888
e 19 762
e 19 64
e 19 589
e 19 767
e 19 155
e 20 698
e 20 633
e 20 153
e 20 662
e 20 66
e 20 452
e 20 203
e 22 675
e 22 757
e 22 589
e 22 72
e 22 106
e 26 698
e 26 943
e 26 111
e 28 521
e 28 412
e 28 223
e 28 133
e 28 916
e 28 755
e 28 741
e 29 850
e 29 553
e 29 424
e 29 243
e 29 51
e 29 521
e 29 811
e 30 109
e 30 513
e 30 987
e 30 391
e 31 709
e 31 477
e 31 852
e 31 328
e 33 922
e 33 226
e 33 807
e 34 901
e 34 716
e 34 263
e 34 411
e 35 704
e 35 102
e 35 986
e 35 707
e 35 939
e 35 319
e 36 134
e 36 388
e 36 130
e 36 703
e 36 68
e 36 585
e 37 109
e 37 275
e 37 363
e 37 785
e 37 460
e 37 658
e 37 157
e 37 579
e 37 285
e 37 489
e 37 892
e 38 631
e 38 306
e 38 322
e 38 841
e 38 509
e 38 649
e 39 720
e 39 169
e 39 916
e 39 824
e 41 232
e 41 215
e 41 707
e 41 751
e 41 531
e 41 403
e 41 934
e 43 700
e 43 790
e 43 862
e 43 378
e 46 825
e 46 301
e 46 764
e 48 913
e 48 816
e 48 559
e 48 473
e 48 233
e 48 880
e 49 831
e 49 423
e 49 306
e 50 737
e 50 351
e 50 156
e 50 578
e 50 842
e 50 329
e 51 653
e 51 671
e 52 825
e 52 211
e 52 923
e 52 902
e 54 317
e 54 607
e 54 900
e 54 548
e 54 275
e 54 356
e 54 210
e 54 329
e 55 724
e 55 666
e 55 613
e 55 560
e 56 610
e 56 423
e 56 643
e 56 728
e 59 531
e 59 992
e 59 777
e 59 634
e 60 967
e 60 921
e 60 912
e 60 627
e 62 587
e 62 103
e 62 917
e 62 221
e 62 936
e 64 878
e 64 720
e 65 167
e 65 760
e 65 839
e 65 994
e 66 762
e 66 769
e 66 361
e 68 643
e 68 450
e 68 954
e 68 616
e 68 620
e 68 111
e 68 122
e 68 253
e 69 856
e 69 666
e 69 278
e 69 399
e 69 627
e 69 899
e 70 405
e 70 393
e 70 947
e 70 356
e 70 476
e 72 578
e 72 920
e 72 526
e 72 332
e 72 410
e 72 135
e 73 759
e 73 436
e 73 555
e 73 76
e 73 846
e 74 962
e 74 905
e 74 221
e 74 94
e 75 526
e 75 263
e 75 404
e 75 820
e 75 287
e 76 724
e 76 373
e 78 582
e 78 158
e 78 175
e 78 983
e 78 501
e 80 423
e 80 820
e 80 788
e 81 672
e 81 808
e 81 392
e 81 198
e 81 919
e 81 135
e 82 335
e 82 531
e 82 939
e 83 168
e 83 531
e 83 275
e 83 907
e 83 394
e 85 440
e 85 655
e 85 431
e 85 393
e 88 861
e 88 596
e 88 786
e 89 733
e 89 319
e 89 759
e 91 487
e 91 395
e 91 445
e 92 629
e 92 794
e 92 218
e 92 918
e 93 322
e 93 810
e 93 737
e 93 666
e 93 326
e 93 518
e 93 110
e 94 937
e 94 269
e 94 373
e 94 141
e 94 970
e 95 620
e 95 931
e 95 104
e 95 308
e 96 412
e 96 972
e 96 500
e 96 425
e 98 550
e 98 359
e 98 275
e 98 447
e 98 120
e 98 959
e 98 943
e 100 277
e 100 842
e 101 325
e 101 361
e 101 304
e 101 1000
e 101 976
e 101 169
e 102 897
e 102 375
e 102 175
e 103 695
e 103 182
e 103 145
e 103 563
e 103 318
e 104 568
e 104 247
e 104 122
e 105 418
e 105 952
e 105 539
e 105 163
e 105 374
e 105 728
e 106 970
e 106 732
e 109 153
e 109 791
e 109 646
e 109 181
e 109 586
e 110 230
e 110 631
e 110 567
e 110 816
e 110 166
e 111 236
e 111 680
e 114 227
e 114 470
e 114 290
e 114 333
e 114 958
e 116 787
e 116 735
e 116 765
e 117 256
e 117 968
e 117 133
e 118 503
e 118 355
e 118 240
e 120 351
e 120 664
e 120 256
e 120 681
e 120 910
e 121 699
e 121 391
e 121 926
e 122 311
e 122 841
e 122 254
e 122 779
e 123 195
e 123 751
e 123 367
e 125 793
e 125 190
e 125 361
e 125 331
e 125 296
e 127 517
e 127 921
e 127 175
e 127 595
e 127 514
e 127 470
e 128 847
e 128 757
e 128 223
e 130 681
e 130 210
e 130 354
e 133 272
e 133 524
e 133 669
e 133 825
e 134 693
e 134 417
e 134 863
e 135 823
e 135 727
e 135 982
e 137 959
e 137 780
e 137 541
e 137 291
e 137 474
e 137 283
e 138 356
e 138 539
e 138 939
e 138 285
e 138 459
e 139 741
e 139 392
e 139 370
e 139 921
e 139 268
e 139 987
e 139 482
e 139 875
e 139 406
e 139 790
e 140 820
e 140 541
e 140 795
e 141 450
e 141 372
e 141 155
e 142 551
e 142 976
e 142 752
e 144 701
e 144 331
e 144 642
e 144 414
e 144 290
e 144 787
e 144 825
e 145 983
e 145 551
e 145 633
e 145 256
e 145 604
e 146 927
e 146 394
e 146 366
e 146 288
e 146 907
e 148 451
e 148 822
e 148 678
e 149 345
e 149 776
e 149 580
e 149 479
e 149 528
e 150 646
e 150 291
e 150 854
e 150 288
e 152 979
e 152 876
e 152 251
e 152 971
e 153 791
e 153 210
e 153 867
e 153 634
e 153 735
e 153 907
e 153 794
e 154 949
e 154 705
e 154 615
e 154 608
e 154 571
e 155 333
e 155 554
e 155 603
e 155 190
e 156 931
e 156 900
e 157 615
e 157 916
e 158 912
e 158 340
e 161 453
e 161 491
e 161 620
e 161 756
e 161 857
e 163 473
e 163 193
e 164 182
e 164 464
e 164 546
e 164 262
e 164 571
e 166 178
e 166 814
e 166 989
e 166 435
e 166 460
e 167 849
e 167 916
e 167 199
e 168 322
e 168 652
e 169 822
e 169 524
e 169 683
e 169 506
e 171 394
e 171 405
e 171 667
e 171 491
e 172 765
e 172 712
e 172 195
e 172 781
e 173 383
e 173 430
e 173 187
e 173 733
e 175 592
e 175 464
e 175 999
e 177 275
e 177 276
e 177 478
e 178 239
e 178 474
e 178 268
e 179 962
e 179 549
e 179 535
e 179 463
e 179 514
e 180 366
e 180 400
e 180 802
e 181 391
e 181 486
e 181 477
e 181 823
e 181 203
e 182 873
e 182 285
e 183 715
e 183 726
e 183 966
e 183 799
e 184 361
e 184 882
e 184 739
e 187 620
e 187 481
e 187 391
e 187 940
e 189 748
e 189 966
e 189 940
e 189 930
e 189 207
e 190 947
e 190 481
e 191 464
e 191 526
e 191 892
e 193 373
e 193 420
e 195 521
e 196 479
e 196 763
e 196 373
e 198 782
e 198 421
e 198 698
e 198 929
e 198 308
e 199 454
e 199 379
e 199 932
e 199 422
e 199 790
e 203 580
e 203 736
e 203 866
e 204 585
e 204 477
e 204 258
e 204 500
e 204 817
e 205 802
e 205 870
e 205 944
e 205 582
e 206 522
e 206 343
e 206 213
e 206 656
e 207 424
e 207 352
e 207 268
e 207 727
e 209 452
e 209 927
e 209 420
e 209 780
e 209 516
e 209 876
e 209 351
e 210 414
e 210 875
e 210 693
e 210 742
e 211 980
e 211 486
e 211 836
e 211 434
e 212 472
e 212 514
e 212 484
e 213 804
e 213 603
e 214 399
e 214 433
e 214 880
e 214 927
e 214 218
e 215 410
e 215 419
e 215 719
e 215 786
e 216 459
e 216 953
e 216 525
e 217 697
e 217 276
e 217 394
e 217 590
e 217 621
e 217 285
e 218 297
e 218 496
e 218 840
e 219 356
e 219 763
e 219 254
e 219 749
e 219 330
e 221 332
e 221 999
e 221 890
e 221 319
e 223 970
e 223 474
e 224 588
e 224 930
e 224 795
e 224 287
e 226 421
e 226 240
e 226 669
e 227 368
e 227 349
e 227 846
e 227 451
e 227 589
e 227 514
e 227 909
e 229 592
e 229 525
e 229 659
e 229 322
e 229 841
e 229 259
e 229 916
e 229 986
e 230 272
e 230 503
e 230 568
e 230 972
e 230 793
e 232 856
e 232 437
e 232 516
e 232 305
e 233 877
e 233 244
e 234 844
e 234 994
e 234 400
e 234 742
e 234 795
e 234 303
e 234 639
e 236 429
e 236 663
e 236 541
e 236 752
e 236 648
e 237 306
e 237 420
e 237 285
e 238 859
e 238 967
e 238 322
e 238 714
e 238 876
e 239 981
e 239 899
e 239 417
e 239 990
e 240 968
e 240 444
e 240 454
e 241 554
e 241 688
e 241 929
e 241 672
e 241 958
e 242 734
e 242 647
e 242 759
e 243 296
e 243 700
e 243 260
e 244 473
e 244 925
e 244 966
e 244 889
e 244 748
e 244 899
e 244 250
e 246 863
e 246 263
e 246 446
e 246 645
e 247 603
e 247 872
e 249 776
e 249 787
e 249 866
e 249 462
e 250 721
e 250 785
e 250 565
e 250 964
e 251 345
e 251 675
e 251 287
e 251 478
e 253 994
e 253 417
e 253 528
e 253 317
e 254 779
e 254 898
e 256 422
e 256 511
e 256 351
e 257 599
e 257 782
e 257 733
e 257 511
e 257 738
e 258 871
e 258 750
e 259 524
e 259 542
e 260 647
e 260 301
e 260 326
e 260 452
e 260 954
e 260 601
e 261 733
e 261 868
e 261 811
e 262 295
e 262 936
e 262 920
e 262 652
e 263 312
e 263 766
e 264 276
e 264 423
e 264 518
e 264 553
e 264 605
e 266 827
e 266 340
e 266 579
e 266 617
e 266 367
e 268 557
e 268 649
e 268 285
e 269 305
e 269 361
e 269 475
e 269 272
e 271 341
e 271 847
e 271 786
e 271 683
e 272 578
e 272 316
e 272 608
e 272 767
e 275 892
e 276 648
e 277 641
e 277 606
e 277 406
e 277 317
e 277 368
e 278 925
e 278 760
e 280 529
e 280 390
e 280 999
e 280 889
e 281 584
e 281 928
e 281 830
e 281 555
e 281 381
e 282 410
e 282 442
e 282 485
e 282 556
e 283 935
e 283 610
e 283 483
e 283 497
e 283 714
e 283 726
e 283 810
e 283 550
e 284 483
e 284 891
e 284 318
e 285 971
e 285 764
e 285 840
e 285 715
e 286 935
e 286 403
e 286 567
e 286 646
e 287 607
e 287 424
e 288 509
e 288 588
e 288 688
e 288 886
e 288 608
e 290 859
e 290 735
e 290 778
e 291 435
e 291 661
e 291 685
e 291 674
e 293 889
e 293 622
e 293 623
e 295 604
e 295 850
e 295 655
e 296 687
e 296 599
e 297 952
e 297 459
e 298 680
e 298 982
e 298 535
e 298 546
e 298 406
e 298 698
e 299 395
e 299 450
e 299 763
e 299 680
e 299 705
e 300 890
e 300 388
e 300 695
e 300 886
e 300 400
e 301 567
e 301 425
e 301 765
e 301 334
e 303 311
e 303 825
e 304 307
e 304 703
e 305 778
e 305 662
e 305 649
e 306 740
e 306 641
e 306 877
e 306 348
e 307 550
e 307 728
e 308 846
e 308 968
e 311 339
e 311 543
e 311 845
e 312 882
e 313 962
e 313 873
e 313 742
e 313 452
e 313 752
e 313 727
e 313 534
e 316 534
e 318 768
e 318 341
e 318 343
e 318 733
e 318 348
e 319 747
e 319 588
e 322 959
e 322 452
e 325 489
e 325 953
e 325 590
e 326 966
e 326 849
e 326 549
e 326 363
e 328 615
e 328 358
e 328 909
e 329 345
e 330 751
e 330 461
e 330 686
e 330 722
e 330 788
e 331 685
e 331 736
e 332 406
e 332 953
e 333 671
e 334 922
e 334 800
e 335 952
e 335 580
e 335 436
e 339 440
e 339 990
e 340 361
e 340 574
e 341 383
e 343 648
e 343 940
e 343 739
e 343 578
e 345 513
e 345 875
e 345 985
e 345 822
e 345 596
e 348 458
e 348 593
e 349 765
e 349 830
e 349 653
e 351 996
e 351 913
e 352 623
e 352 624
e 352 639
e 354 861
e 354 440
e 354 484
e 355 923
e 355 794
e 356 556
e 357 770
e 357 590
e 357 747
e 358 787
e 358 642
e 358 497
e 358 811
e 358 604
e 359 542
e 359 686
e 359 614
e 359 671
e 359 822
e 359 741
e 359 708
e 361 674
e 361 568
e 363 820
e 363 408
e 365 588
e 365 889
e 365 866
e 365 676
e 366 448
e 366 850
e 366 550
e 367 720
e 367 464
e 367 726
e 368 892
e 368 610
e 368 716
e 368 776
e 368 605
e 369 663
e 369 526
e 369 979
e 369 953
e 370 802
e 370 590
e 370 923
e 372 721
e 372 596
e 372 643
e 372 990
e 373 886
e 373 603
e 373 930
e 373 505
e 373 973
e 374 596
e 374 578
e 375 824
e 375 598
e 375 385
e 375 962
e 377 808
e 377 965
e 377 889
e 378 759
e 378 901
e 378 425
e 378 912
e 379 840
e 379 567
e 379 400
e 379 759
e 380 531
e 380 931
e 380 733
e 380 484
e 381 816
e 381 479
e 381 587
e 383 621
e 383 805
e 385 420
e 385 413
e 386 916
e 386 825
e 386 611
e 386 845
e 386 413
e 388 528
e 388 788
e 389 521
e 389 639
e 390 553
e 390 789
e 390 666
e 391 565
e 391 503
e 392 718
e 392 455
e 393 455
e 393 742
e 393 892
e 395 509
e 396 574
e 396 470
e 396 533
e 396 857
e 397 419
e 397 714
e 397 674
e 397 514
e 398 841
e 398 408
e 398 701
e 398 482
e 398 406
e 399 986
e 400 981
e 401 766
e 401 842
e 401 614
e 403 553
e 403 767
e 403 943
e 404 713
e 404 607
e 404 592
e 405 704
e 405 559
e 406 867
e 408 710
e 408 426
e 408 666
e 408 851
e 410 422
e 410 910
e 411 804
e 411 599
e 412 924
e 412 431
e 412 479
e 413 782
e 414 759
e 414 491
e 414 762
e 417 747
e 418 431
e 418 664
e 418 635
e 418 810
e 418 997
e 419 956
e 419 654
e 419 520
e 419 954
e 419 579
e 419 800
e 420 739
e 420 734
e 421 823
e 421 563
e 421 799
e 422 727
e 422 896
e 422 964
e 422 674
e 423 733
e 423 805
e 425 721
e 426 870
e 426 682
e 428 798
e 428 825
e 428 891
e 428 609
e 428 973
e 428 968
e 429 742
e 429 522
e 429 444
e 429 867
e 429 460
e 429 728
e 429 830
e 430 956
e 430 642
e 430 444
e 430 517
e 431 849
e 432 834
e 432 477
e 432 621
e 432 747
e 433 613
e 433 690
e 433 633
e 434 992
e 434 694
e 435 914
e 435 556
e 435 535
e 436 896
e 437 937
e 437 846
e 440 938
e 440 811
e 440 622
e 441 459
e 441 709
e 441 971
e 442 501
e 442 920
e 444 624
e 444 651
e 445 587
e 445 861
e 445 501
e 446 542
e 447 660
e 447 735
e 447 825
e 447 662
e 447 798
e 448 647
e 448 859
e 448 728
e 449 922
e 449 538
e 449 936
e 450 798
e 450 719
e 451 513
e 451 686
e 451 593
e 453 671
e 453 587
e 453 852
e 454 978
e 455 655
e 458 866
e 458 732
e 458 722
e 459 973
e 459 551
e 459 906
e 459 468
e 459 862
e 460 521
e 460 517
e 461 979
e 461 475
e 461 623
e 461 686
e 462 965
e 462 699
e 463 768
e 463 484
e 463 631
e 464 655
e 464 969
e 468 701
e 468 898
e 470 489
e 470 864
e 472 871
e 472 763
e 472 985
e 474 497
e 474 938
e 474 744
e 474 765
e 475 990
e 475 795
e 476 568
e 476 756
e 477 947
e 477 997
e 477 916
e 478 850
e 478 938
e 479 811
e 479 929
e 481 538
e 481 738
e 481 722
e 482 790
e 482 781
e 482 880
e 482 890
e 482 719
e 483 708
e 483 905
e 485 535
e 485 743
e 485 930
e 486 584
e 486 629
e 486 785
e 487 698
e 489 743
e 489 996
e 489 921
e 489 612
e 491 825
e 493 543
e 493 542
e 493 816
e 496 699
e 496 641
e 496 701
e 497 686
e 497 888
e 500 885
e 504 690
e 504 824
e 504 876
e 504 930
e 505 879
e 505 534
e 505 614
e 506 718
e 506 672
e 506 782
e 509 606
e 509 993
e 511 743
e 511 777
e 511 748
e 513 573
e 514 735
e 514 567
e 514 606
e 514 616
e 516 798
e 517 655
e 517 847
e 517 972
e 518 986
e 518 909
e 520 789
e 520 872
e 522 944
e 522 922
e 522 616
e 524 574
e 524 737
e 524 539
e 525 599
e 525 778
e 526 886
e 528 831
e 529 549
e 529 882
e 530 646
e 530 918
e 530 751
e 530 992
e 531 916
e 531 901
e 531 856
e 532 970
e 532 906
e 532 539
e 533 885
e 533 598
e 534 925
e 535 601
e 535 645
e 536 643
e 536 917
e 536 710
e 536 633
e 536 578
e 537 802
e 537 676
e 537 845
e 538 584
e 538 713
e 538 977
e 538 808
e 539 878
e 539 629
e 541 666
e 541 655
e 541 543
e 542 830
e 542 742
e 542 980
e 542 820
e 543 943
e 546 903
e 548 849
e 548 910
e 548 609
e 549 763
e 549 656
e 549 718
e 550 624
e 550 979
e 551 586
e 551 573
e 552 824
e 552 743
e 552 943
e 553 712
e 553 617
e 553 587
e 553 611
e 554 969
e 554 939
e 555 606
e 555 943
e 555 710
e 557 641
e 557 897
e 559 724
e 560 827
e 560 958
e 560 732
e 560 939
e 563 946
e 563 872
e 565 836
e 567 905
e 567 915
e 567 836
e 567 949
e 568 977
e 568 902
e 571 985
e 571 651
e 573 786
e 573 896
e 574 584
e 574 968
e 578 985
e 580 981
e 582 669
e 582 842
e 585 694
e 585 615
e 585 905
e 586 752
e 587 622
e 587 615
e 589 700
e 589 718
e 589 948
e 589 925
e 590 871
e 590 633
e 592 635
e 592 710
e 592 794
e 593 680
e 595 839
e 595 749
e 595 958
e 596 900
e 598 614
e 598 854
e 598 735
e 599 964
e 599 937
e 601 768
e 601 797
e 603 619
e 604 695
e 604 816
e 605 965
e 605 874
e 607 914
e 607 676
e 607 728
e 607 748
e 607 752
e 608 680
e 608 662
e 609 939
e 609 782
e 609 760
e 610 744
e 611 931
e 612 770
e 612 766
e 613 919
e 613 698
e 615 809
e 615 704
e 616 824
e 617 722
e 617 880
e 619 928
e 619 854
e 619 682
e 619 809
e 620 927
e 620 734
e 621 664
e 622 793
e 623 924
e 623 915
e 623 954
e 624 857
e 624 866
e 624 794
e 627 924
e 627 875
e 627 701
e 629 815
e 629 721
e 629 655
e 633 847
e 634 728
e 635 983
e 635 779
e 640 852
e 640 659
e 640 788
e 641 973
e 642 921
e 642 663
e 645 888
e 645 763
e 648 737
e 648 888
e 649 794
e 651 859
e 652 929
e 652 765
e 652 926
e 653 827
e 654 743
e 654 667
e 655 757
e 656 660
e 656 737
e 656 688
e 658 876
e 658 996
e 659 888
e 660 875
e 660 861
e 660 918
e 661 785
e 661 835
e 661 799
e 661 739
e 662 769
e 663 890
e 663 683
e 664 728
e 664 840
e 666 976
e 667 773
e 667 912
e 669 780
e 671 943
e 672 793
e 675 799
e 678 914
e 678 734
e 681 810
e 682 769
e 683 944
e 683 897
e 685 926
e 685 870
e 686 889
e 687 1000
e 688 769
e 690 729
e 690 815
e 690 778
e 690 909
e 693 788
e 693 778
e 693 694
e 695 992
e 697 907
e 697 920
e 699 946
e 699 835
e 701 868
e 703 947
e 703 739
e 704 992
e 705 817
e 705 916
e 707 874
e 708 870
e 708 836
e 709 901
e 709 952
e 710 915
e 710 799
e 712 836
e 712 906
e 713 849
e 714 977
e 715 874
e 716 741
e 716 983
e 719 844
e 720 987
e 721 870
e 722 768
e 727 906
e 727 764
e 729 749
e 729 913
e 729 780
e 729 917
e 729 919
e 733 747
e 733 802
e 733 779
e 736 781
e 737 814
e 738 981
e 739 790
e 740 914
e 741 789
e 744 782
e 744 929
e 747 868
e 748 863
e 750 967
e 750 756
e 751 755
e 755 891
e 755 852
e 756 804
e 757 879
e 759 854
e 762 899
e 763 970
e 765 906
e 766 816
e 769 918
e 770 935
e 770 934
e 773 873
e 773 814
e 777 946
e 777 879
e 778 800
e 778 982
e 779 954
e 780 849
e 781 831
e 782 997
e 785 932
e 787 809
e 788 944
e 788 866
e 789 863
e 789 907
e 790 980
e 791 837
e 791 947
e 797 891
e 797 946
e 797 979
e 798 837
e 799 973
e 800 898
e 805 810
e 805 903
e 807 827
e 807 947
e 809 934
e 809 996
e 811 858
e 814 835
e 815 871
e 816 981
e 816 976
e 816 931
e 816 999
e 817 967
e 820 968
e 822 925
e 823 857
e 824 954
e 824 919
e 824 993
e 827 916
e 827 910
e 827 854
e 830 999
e 834 842
e 834 932
e 835 877
e 836 931
e 837 870
e 839 969
e 840 846
e 842 892
e 842 948
e 844 989
e 845 867
e 849 916
e 849 897
e 850 888
e 851 886
e 851 882
e 852 966
e 858 952
e 858 907
e 859 873
e 862 917
e 864 971
e 864 878
e 868 926
e 870 978
e 872 948
e 874 997
e 875 903
e 879 948
e 882 922
e 885 967
e 886 905
e 886 899
e 888 929
e 890 913
e 899 917
e 902 989
e 907 944
e 909 935
e 912 949
e 913 1000
e 913 936
e 915 935
e 920 981
e 920 976
e 928 932
e 931 967
e 931 986
e 939 994
e 953 966
e 956 967
e 978 993
