txt_Ins/graph-1000-992.txt
n 1000
e 0 486
e 0 719
e 0 402
e 0 148
e 0 380
e 0 478
e 1 445
e 1 623
e 1 8
e 1 305
e 1 147
e 2 152
e 2 890
e 2 577
e 2 679
e 2 552
e 3 75
e 3 713
e 3 332
e 4 412
e 4 310
e 4 311
e 4 360
e 4 250
e 4 129
e 4 53
e 4 274
e 5 598
e 5 693
e 5 611
e 5 87
e 5 651
e 5 256
e 6 99
e 6 325
e 6 396
e 7 916
e 7 121
e 7 995
e 8 686
e 8 985
e 8 213
e 8 157
e 9 92
e 9 290
e 9 333
e 9 490
e 10 746
e 10 647
e 10 739
e 10 99
e 10 298
e 10 592
e 12 797
e 12 265
e 12 79
e 13 215
e 13 420
e 13 281
e 13 936
e 13 861
e 16 315
e 16 502
e 16 616
e 16 388
e 16 305
e 17 74
e 17 364
e 17 19
e 17 696
e 17 796
e 17 433
e 17 887
e 18 761
e 18 63
e 18 588
e 18 766
e 18 154
e 19 697
e 19 632
e 19 152
e 19 661
e 19 65
e 19 451
e 19 202
e 21 674
e 21 756
e 21 588
e 21 71
e 21 105
e 25 697
e 25 942
e 25 110
e 27 520
e 27 411
e 27 222
e 27 132
e 27 915
e 27 754
e 27 740
e 28 849
e 28 552
e 28 423
e 28 242
e 28 50
e 28 520
e 28 810
e 29 108
e 29 512
e 29 986
e 29 390
e 30 708
e 30 476
e 30 851
e 30 327
e 32 921
e 32 225
e 32 806
e 33 900
e 33 715
e 33 262
e 33 410
e 34 703
e 34 101
e 34 985
e 34 706
e 34 938
e 34 318
e 35 133
e 35 387
e 35 129
e 35 702
e 35 67
e 35 584
e 36 108
e 36 274
e 36 362
e 36 784
e 36 459
e 36 657
e 36 156
e 36 578
e 36 284
e 36 488
e 36 891
e 37 630
e 37 305
e 37 321
e 37 840
e 37 508
e 37 648
e 38 719
e 38 168
e 38 915
e 38 823
e 40 231
e 40 214
e 40 706
e 40 750
e 40 530
e 40 402
e 40 933
e 42 699
e 42 789
e 42 861
e 42 377
e 45 824
e 45 300
e 45 763
e 47 912
e 47 815
e 47 558
e 47 472
e 47 232
e 47 879
e 48 830
e 48 422
e 48 305
e 49 736
e 49 350
e 49 155
e 49 577
e 49 841
e 49 328
e 50 652
e 50 670
e 51 824
e 51 210
e 51 922
e 51 901
e 53 316
e 53 606
e 53 899
e 53 547
e 53 274
e 53 355
e 53 209
e 53 328
e 54 723
e 54 665
e 54 612
e 54 559
e 55 609
e 55 422
e 55 642
e 55 727
e 58 530
e 58 991
e 58 776
e 58 633
e 59 966
e 59 920
e 59 911
e 59 626
e 61 586
e 61 102
e 61 916
e 61 220
e 61 935
e 63 877
e 63 719
e 64 166
e 64 759
e 64 838
e 64 993
e 65 761
e 65 768
e 65 360
e 67 642
e 67 449
e 67 953
e 67 615
e 67 619
e 67 110
e 67 121
e 67 252
e 68 855
e 68 665
e 68 277
e 68 398
e 68 626
e 68 898
e 69 404
e 69 392
e 69 946
e 69 355
e 69 475
e 71 577
e 71 919
e 71 525
e 71 331
e 71 409
e 71 134
e 72 758
e 72 435
e 72 554
e 72 75
e 72 845
e 73 961
e 73 904
e 73 220
e 73 93
e 74 525
e 74 262
e 74 403
e 74 819
e 74 286
e 75 723
e 75 372
e 77 581
e 77 157
e 77 174
e 77 982
e 77 500
e 79 422
e 79 819
e 79 787
e 80 671
e 80 807
e 80 391
e 80 197
e 80 918
e 80 134
e 81 334
e 81 530
e 81 938
e 82 167
e 82 530
e 82 274
e 82 906
e 82 393
e 84 439
e 84 654
e 84 430
e 84 392
e 87 860
e 87 595
e 87 785
e 88 732
e 88 318
e 88 758
e 90 486
e 90 394
e 90 444
e 91 628
e 91 793
e 91 217
e 91 917
e 92 321
e 92 809
e 92 736
e 92 665
e 92 325
e 92 517
e 92 109
e 93 936
e 93 268
e 93 372
e 93 140
e 93 969
e 94 619
e 94 930
e 94 103
e 94 307
e 95 411
e 95 971
e 95 499
e 95 424
e 97 549
e 97 358
e 97 274
e 97 446
e 97 119
e 97 958
e 97 942
e 99 276
e 99 841
e 100 324
e 100 360
e 100 303
e 100 999
e 100 975
e 100 168
e 101 896
e 101 374
e 101 174
e 102 694
e 102 181
e 102 144
e 102 562
e 102 317
e 103 567
e 103 246
e 103 121
e 104 417
e 104 951
e 104 538
e 104 162
e 104 373
e 104 727
e 105 969
e 105 731
e 108 152
e 108 790
e 108 645
e 108 180
e 108 585
e 109 229
e 109 630
e 109 566
e 109 815
e 109 165
e 110 235
e 110 679
e 113 226
e 113 469
e 113 289
e 113 332
e 113 957
e 115 786
e 115 734
e 115 764
e 116 255
e 116 967
e 116 132
e 117 502
e 117 354
e 117 239
e 119 350
e 119 663
e 119 255
e 119 680
e 119 909
e 120 698
e 120 390
e 120 925
e 121 310
e 121 840
e 121 253
e 121 778
e 122 194
e 122 750
e 122 366
e 124 792
e 124 189
e 124 360
e 124 330
e 124 295
e 126 516
e 126 920
e 126 174
e 126 594
e 126 513
e 126 469
e 127 846
e 127 756
e 127 222
e 129 680
e 129 209
e 129 353
e 132 271
e 132 523
e 132 668
e 132 824
e 133 692
e 133 416
e 133 862
e 134 822
e 134 726
e 134 981
e 136 958
e 136 779
e 136 540
e 136 290
e 136 473
e 136 282
e 137 355
e 137 538
e 137 938
e 137 284
e 137 458
e 138 740
e 138 391
e 138 369
e 138 920
e 138 267
e 138 986
e 138 481
e 138 874
e 138 405
e 138 789
e 139 819
e 139 540
e 139 794
e 140 449
e 140 371
e 140 154
e 141 550
e 141 975
e 141 751
e 143 700
e 143 330
e 143 641
e 143 413
e 143 289
e 143 786
e 143 824
e 144 982
e 144 550
e 144 632
e 144 255
e 144 603
e 145 926
e 145 393
e 145 365
e 145 287
e 145 906
e 147 450
e 147 821
e 147 677
e 148 344
e 148 775
e 148 579
e 148 478
e 148 527
e 149 645
e 149 290
e 149 853
e 149 287
e 151 978
e 151 875
e 151 250
e 151 970
e 152 790
e 152 209
e 152 866
e 152 633
e 152 734
e 152 906
e 152 793
e 153 948
e 153 704
e 153 614
e 153 607
e 153 570
e 154 332
e 154 553
e 154 602
e 154 189
e 155 930
e 155 899
e 156 614
e 156 915
e 157 911
e 157 339
e 160 452
e 160 490
e 160 619
e 160 755
e 160 856
e 162 472
e 162 192
e 163 181
e 163 463
e 163 545
e 163 261
e 163 570
e 165 177
e 165 813
e 165 988
e 165 434
e 165 459
e 166 848
e 166 915
e 166 198
e 167 321
e 167 651
e 168 821
e 168 523
e 168 682
e 168 505
e 170 393
e 170 404
e 170 666
e 170 490
e 171 764
e 171 711
e 171 194
e 171 780
e 172 382
e 172 429
e 172 186
e 172 732
e 174 591
e 174 463
e 174 998
e 176 274
e 176 275
e 176 477
e 177 238
e 177 473
e 177 267
e 178 961
e 178 548
e 178 534
e 178 462
e 178 513
e 179 365
e 179 399
e 179 801
e 180 390
e 180 485
e 180 476
e 180 822
e 180 202
e 181 872
e 181 284
e 182 714
e 182 725
e 182 965
e 182 798
e 183 360
e 183 881
e 183 738
e 186 619
e 186 480
e 186 390
e 186 939
e 188 747
e 188 965
e 188 939
e 188 929
e 188 206
e 189 946
e 189 480
e 190 463
e 190 525
e 190 891
e 192 372
e 192 419
e 194 520
e 195 478
e 195 762
e 195 372
e 197 781
e 197 420
e 197 697
e 197 928
e 197 307
e 198 453
e 198 378
e 198 931
e 198 421
e 198 789
e 202 579
e 202 735
e 202 865
e 203 584
e 203 476
e 203 257
e 203 499
e 203 816
e 204 801
e 204 869
e 204 943
e 204 581
e 205 521
e 205 342
e 205 212
e 205 655
e 206 423
e 206 351
e 206 267
e 206 726
e 208 451
e 208 926
e 208 419
e 208 779
e 208 515
e 208 875
e 208 350
e 209 413
e 209 874
e 209 692
e 209 741
e 210 979
e 210 485
e 210 835
e 210 433
e 211 471
e 211 513
e 211 483
e 212 803
e 212 602
e 213 398
e 213 432
e 213 879
e 213 926
e 213 217
e 214 409
e 214 418
e 214 718
e 214 785
e 215 458
e 215 952
e 215 524
e 216 696
e 216 275
e 216 393
e 216 589
e 216 620
e 216 284
e 217 296
e 217 495
e 217 839
e 218 355
e 218 762
e 218 253
e 218 748
e 218 329
e 220 331
e 220 998
e 220 889
e 220 318
e 222 969
e 222 473
e 223 587
e 223 929
e 223 794
e 223 286
e 225 420
e 225 239
e 225 668
e 226 367
e 226 348
e 226 845
e 226 450
e 226 588
e 226 513
e 226 908
e 228 591
e 228 524
e 228 658
e 228 321
e 228 840
e 228 258
e 228 915
e 228 985
e 229 271
e 229 502
e 229 567
e 229 971
e 229 792
e 231 855
e 231 436
e 231 515
e 231 304
e 232 876
e 232 243
e 233 843
e 233 993
e 233 399
e 233 741
e 233 794
e 233 302
e 233 638
e 235 428
e 235 662
e 235 540
e 235 751
e 235 647
e 236 305
e 236 419
e 236 284
e 237 858
e 237 966
e 237 321
e 237 713
e 237 875
e 238 980
e 238 898
e 238 416
e 238 989
e 239 967
e 239 443
e 239 453
e 240 553
e 240 687
e 240 928
e 240 671
e 240 957
e 241 733
e 241 646
e 241 758
e 242 295
e 242 699
e 242 259
e 243 472
e 243 924
e 243 965
e 243 888
e 243 747
e 243 898
e 243 249
e 245 862
e 245 262
e 245 445
e 245 644
e 246 602
e 246 871
e 248 775
e 248 786
e 248 865
e 248 461
e 249 720
e 249 784
e 249 564
e 249 963
e 250 344
e 250 674
e 250 286
e 250 477
e 252 993
e 252 416
e 252 527
e 252 316
e 253 778
e 253 897
e 255 421
e 255 510
e 255 350
e 256 598
e 256 781
e 256 732
e 256 510
e 256 737
e 257 870
e 257 749
e 258 523
e 258 541
e 259 646
e 259 300
e 259 325
e 259 451
e 259 953
e 259 600
e 260 732
e 260 867
e 260 810
e 261 294
e 261 935
e 261 919
e 261 651
e 262 311
e 262 765
e 263 275
e 263 422
e 263 517
e 263 552
e 263 604
e 265 826
e 265 339
e 265 578
e 265 616
e 265 366
e 267 556
e 267 648
e 267 284
e 268 304
e 268 360
e 268 474
e 268 271
e 270 340
e 270 846
e 270 785
e 270 682
e 271 577
e 271 315
e 271 607
e 271 766
e 274 891
e 275 647
e 276 640
e 276 605
e 276 405
e 276 316
e 276 367
e 277 924
e 277 759
e 279 528
e 279 389
e 279 998
e 279 888
e 280 583
e 280 927
e 280 829
e 280 554
e 280 380
e 281 409
e 281 441
e 281 484
e 281 555
e 282 934
e 282 609
e 282 482
e 282 496
e 282 713
e 282 725
e 282 809
e 282 549
e 283 482
e 283 890
e 283 317
e 284 970
e 284 763
e 284 839
e 284 714
e 285 934
e 285 402
e 285 566
e 285 645
e 286 606
e 286 423
e 287 508
e 287 587
e 287 687
e 287 885
e 287 607
e 289 858
e 289 734
e 289 777
e 290 434
e 290 660
e 290 684
e 290 673
e 292 888
e 292 621
e 292 622
e 294 603
e 294 849
e 294 654
e 295 686
e 295 598
e 296 951
e 296 458
e 297 679
e 297 981
e 297 534
e 297 545
e 297 405
e 297 697
e 298 394
e 298 449
e 298 762
e 298 679
e 298 704
e 299 889
e 299 387
e 299 694
e 299 885
e 299 399
e 300 566
e 300 424
e 300 764
e 300 333
e 302 310
e 302 824
e 303 306
e 303 702
e 304 777
e 304 661
e 304 648
e 305 739
e 305 640
e 305 876
e 305 347
e 306 549
e 306 727
e 307 845
e 307 967
e 310 338
e 310 542
e 310 844
e 311 881
e 312 961
e 312 872
e 312 741
e 312 451
e 312 751
e 312 726
e 312 533
e 315 533
e 317 767
e 317 340
e 317 342
e 317 732
e 317 347
e 318 746
e 318 587
e 321 958
e 321 451
e 324 488
e 324 952
e 324 589
e 325 965
e 325 848
e 325 548
e 325 362
e 327 614
e 327 357
e 327 908
e 328 344
e 329 750
e 329 460
e 329 685
e 329 721
e 329 787
e 330 684
e 330 735
e 331 405
e 331 952
e 332 670
e 333 921
e 333 799
e 334 951
e 334 579
e 334 435
e 338 439
e 338 989
e 339 360
e 339 573
e 340 382
e 342 647
e 342 939
e 342 738
e 342 577
e 344 512
e 344 874
e 344 984
e 344 821
e 344 595
e 347 457
e 347 592
e 348 764
e 348 829
e 348 652
e 350 995
e 350 912
e 351 622
e 351 623
e 351 638
e 353 860
e 353 439
e 353 483
e 354 922
e 354 793
e 355 555
e 356 769
e 356 589
e 356 746
e 357 786
e 357 641
e 357 496
e 357 810
e 357 603
e 358 541
e 358 685
e 358 613
e 358 670
e 358 821
e 358 740
e 358 707
e 360 673
e 360 567
e 362 819
e 362 407
e 364 587
e 364 888
e 364 865
e 364 675
e 365 447
e 365 849
e 365 549
e 366 719
e 366 463
e 366 725
e 367 891
e 367 609
e 367 715
e 367 775
e 367 604
e 368 662
e 368 525
e 368 978
e 368 952
e 369 801
e 369 589
e 369 922
e 371 720
e 371 595
e 371 642
e 371 989
e 372 885
e 372 602
e 372 929
e 372 504
e 372 972
e 373 595
e 373 577
e 374 823
e 374 597
e 374 384
e 374 961
e 376 807
e 376 964
e 376 888
e 377 758
e 377 900
e 377 424
e 377 911
e 378 839
e 378 566
e 378 399
e 378 758
e 379 530
e 379 930
e 379 732
e 379 483
e 380 815
e 380 478
e 380 586
e 382 620
e 382 804
e 384 419
e 384 412
e 385 915
e 385 824
e 385 610
e 385 844
e 385 412
e 387 527
e 387 787
e 388 520
e 388 638
e 389 552
e 389 788
e 389 665
e 390 564
e 390 502
e 391 717
e 391 454
e 392 454
e 392 741
e 392 891
e 394 508
e 395 573
e 395 469
e 395 532
e 395 856
e 396 418
e 396 713
e 396 673
e 396 513
e 397 840
e 397 407
e 397 700
e 397 481
e 397 405
e 398 985
e 399 980
e 400 765
e 400 841
e 400 613
e 402 552
e 402 766
e 402 942
e 403 712
e 403 606
e 403 591
e 404 703
e 404 558
e 405 866
e 407 709
e 407 425
e 407 665
e 407 850
e 409 421
e 409 909
e 410 803
e 410 598
e 411 923
e 411 430
e 411 478
e 412 781
e 413 758
e 413 490
e 413 761
e 416 746
e 417 430
e 417 663
e 417 634
e 417 809
e 417 996
e 418 955
e 418 653
e 418 519
e 418 953
e 418 578
e 418 799
e 419 738
e 419 733
e 420 822
e 420 562
e 420 798
e 421 726
e 421 895
e 421 963
e 421 673
e 422 732
e 422 804
e 424 720
e 425 869
e 425 681
e 427 797
e 427 824
e 427 890
e 427 608
e 427 972
e 427 967
e 428 741
e 428 521
e 428 443
e 428 866
e 428 459
e 428 727
e 428 829
e 429 955
e 429 641
e 429 443
e 429 516
e 430 848
e 431 833
e 431 476
e 431 620
e 431 746
e 432 612
e 432 689
e 432 632
e 433 991
e 433 693
e 434 913
e 434 555
e 434 534
e 435 895
e 436 936
e 436 845
e 439 937
e 439 810
e 439 621
e 440 458
e 440 708
e 440 970
e 441 500
e 441 919
e 443 623
e 443 650
e 444 586
e 444 860
e 444 500
e 445 541
e 446 659
e 446 734
e 446 824
e 446 661
e 446 797
e 447 646
e 447 858
e 447 727
e 448 921
e 448 537
e 448 935
e 449 797
e 449 718
e 450 512
e 450 685
e 450 592
e 452 670
e 452 586
e 452 851
e 453 977
e 454 654
e 457 865
e 457 731
e 457 721
e 458 972
e 458 550
e 458 905
e 458 467
e 458 861
e 459 520
e 459 516
e 460 978
e 460 474
e 460 622
e 460 685
e 461 964
e 461 698
e 462 767
e 462 483
e 462 630
e 463 654
e 463 968
e 467 700
e 467 897
e 469 488
e 469 863
e 471 870
e 471 762
e 471 984
e 473 496
e 473 937
e 473 743
e 473 764
e 474 989
e 474 794
e 475 567
e 475 755
e 476 946
e 476 996
e 476 915
e 477 849
e 477 937
e 478 810
e 478 928
e 480 537
e 480 737
e 480 721
e 481 789
e 481 780
e 481 879
e 481 889
e 481 718
e 482 707
e 482 904
e 484 534
e 484 742
e 484 929
e 485 583
e 485 628
e 485 784
e 486 697
e 488 742
e 488 995
e 488 920
e 488 611
e 490 824
e 492 542
e 492 541
e 492 815
e 495 698
e 495 640
e 495 700
e 496 685
e 496 887
e 499 884
e 503 689
e 503 823
e 503 875
e 503 929
e 504 878
e 504 533
e 504 613
e 505 717
e 505 671
e 505 781
e 508 605
e 508 992
e 510 742
e 510 776
e 510 747
e 512 572
e 513 734
e 513 566
e 513 605
e 513 615
e 515 797
e 516 654
e 516 846
e 516 971
e 517 985
e 517 908
e 519 788
e 519 871
e 521 943
e 521 921
e 521 615
e 523 573
e 523 736
e 523 538
e 524 598
e 524 777
e 525 885
e 527 830
e 528 548
e 528 881
e 529 645
e 529 917
e 529 750
e 529 991
e 530 915
e 530 900
e 530 855
e 531 969
e 531 905
e 531 538
e 532 884
e 532 597
e 533 924
e 534 600
e 534 644
e 535 642
e 535 916
e 535 709
e 535 632
e 535 577
e 536 801
e 536 675
e 536 844
e 537 583
e 537 712
e 537 976
e 537 807
e 538 877
e 538 628
e 540 665
e 540 654
e 540 542
e 541 829
e 541 741
e 541 979
e 541 819
e 542 942
e 545 902
e 547 848
e 547 909
e 547 608
e 548 762
e 548 655
e 548 717
e 549 623
e 549 978
e 550 585
e 550 572
e 551 823
e 551 742
e 551 942
e 552 711
e 552 616
e 552 586
e 552 610
e 553 968
e 553 938
e 554 605
e 554 942
e 554 709
e 556 640
e 556 896
e 558 723
e 559 826
e 559 957
e 559 731
e 559 938
e 562 945
e 562 871
e 564 835
e 566 904
e 566 914
e 566 835
e 566 948
e 567 976
e 567 901
e 570 984
e 570 650
e 572 785
e 572 895
e 573 583
e 573 967
e 577 984
e 579 980
e 581 668
e 581 841
e 584 693
e 584 614
e 584 904
e 585 751
e 586 621
e 586 614
e 588 699
e 588 717
e 588 947
e 588 924
e 589 870
e 589 632
e 591 634
e 591 709
e 591 793
e 592 679
e 594 838
e 594 748
e 594 957
e 595 899
e 597 613
e 597 853
e 597 734
e 598 963
e 598 936
e 600 767
e 600 796
e 602 618
e 603 694
e 603 815
e 604 964
e 604 873
e 606 913
e 606 675
e 606 727
e 606 747
e 606 751
e 607 679
e 607 661
e 608 938
e 608 781
e 608 759
e 609 743
e 610 930
e 611 769
e 611 765
e 612 918
e 612 697
e 614 808
e 614 703
e 615 823
e 616 721
e 616 879
e 618 927
e 618 853
e 618 681
e 618 808
e 619 926
e 619 733
e 620 663
e 621 792
e 622 923
e 622 914
e 622 953
e 623 856
e 623 865
e 623 793
e 626 923
e 626 874
e 626 700
e 628 814
e 628 720
e 628 654
e 632 846
e 633 727
e 634 982
e 634 778
e 639 851
e 639 658
e 639 787
e 640 972
e 641 920
e 641 662
e 644 887
e 644 762
e 647 736
e 647 887
e 648 793
e 650 858
e 651 928
e 651 764
e 651 925
e 652 826
e 653 742
e 653 666
e 654 756
e 655 659
e 655 736
e 655 687
e 657 875
e 657 995
e 658 887
e 659 874
e 659 860
e 659 917
e 660 784
e 660 834
e 660 798
e 660 738
e 661 768
e 662 889
e 662 682
e 663 727
e 663 839
e 665 975
e 666 772
e 666 911
e 668 779
e 670 942
e 671 792
e 674 798
e 677 913
e 677 733
e 680 809
e 681 768
e 682 943
e 682 896
e 684 925
e 684 869
e 685 888
e 686 999
e 687 768
e 689 728
e 689 814
e 689 777
e 689 908
e 692 787
e 692 777
e 692 693
e 694 991
e 696 906
e 696 919
e 698 945
e 698 834
e 700 867
e 702 946
e 702 738
e 703 991
e 704 816
e 704 915
e 706 873
e 707 869
e 707 835
e 708 900
e 708 951
e 709 914
e 709 798
e 711 835
e 711 905
e 712 848
e 713 976
e 714 873
e 715 740
e 715 982
e 718 843
e 719 986
e 720 869
e 721 767
e 726 905
e 726 763
e 728 748
e 728 912
e 728 779
e 728 916
e 728 918
e 732 746
e 732 801
e 732 778
e 735 780
e 736 813
e 737 980
e 738 789
e 739 913
e 740 788
e 743 781
e 743 928
e 746 867
e 747 862
e 749 966
e 749 755
e 750 754
e 754 890
e 754 851
e 755 803
e 756 878
e 758 853
e 761 898
e 762 969
e 764 905
e 765 815
e 768 917
e 769 934
e 769 933
e 772 872
e 772 813
e 776 945
e 776 878
e 777 799
e 777 981
e 778 953
e 779 848
e 780 830
e 781 996
e 784 931
e 786 808
e 787 943
e 787 865
e 788 862
e 788 906
e 789 979
e 790 836
e 790 946
e 796 890
e 796 945
e 796 978
e 797 836
e 798 972
e 799 897
e 804 809
e 804 902
e 806 826
e 806 946
e 808 933
e 808 995
e 810 857
e 813 834
e 814 870
e 815 980
e 815 975
e 815 930
e 815 998
e 816 966
e 819 967
e 821 924
e 822 856
e 823 953
e 823 918
e 823 992
e 826 915
e 826 909
e 826 853
e 829 998
e 833 841
e 833 931
e 834 876
e 835 930
e 836 869
e 838 968
e 839 845
e 841 891
e 841 947
e 843 988
e 844 866
e 848 915
e 848 896
e 849 887
e 850 885
e 850 881
e 851 965
e 857 951
e 857 906
e 858 872
e 861 916
e 863 970
e 863 877
e 867 925
e 869 977
e 871 947
e 873 996
e 874 902
e 878 947
e 881 921
e 884 966
e 885 904
e 885 898
e 887 928
e 889 912
e 898 916
e 901 988
e 906 943
e 908 934
e 911 948
e 912 999
e 912 935
e 914 934
e 919 980
e 919 975
e 927 931
e 930 966
e 930 985
e 938 993
e 952 965
e 955 966
e 977 992
